30
120
23, 8, 14, 18, 26, 15, 7, 23, 12, 9, 22, 27, 12, 26, 15, 21, 18, 16, 3, 20, 17, 15, 17, 8, 12, 19, 21, 14, 13, 9
36, 20, 25, 43, 43, 43, 11, 41, 19, 22, 40, 46, 20, 42, 29, 42, 35, 41, 6, 37, 45, 34, 43, 18, 34, 41, 44, 24, 31, 19
